c User generated cnf file
p cnf 15 53
2 -8 4 0 
12 10 -8 0 
7 3 -8 0 
2 10 -10 0 
9 -1 10 0 
11 11 -8 0 
5 7 -1 0 
8 -8 14 0 
9 -3 8 0 
5 -12 1 0 
7 -9 9 0 
12 7 -3 0 
13 -8 2 0 
3 4 -5 0 
2 3 -8 0 
11 -11 12 0 
9 5 -13 0 
1 1 -7 0 
11 10 -1 0 
5 -5 13 0 
15 7 -15 0 
12 -13 3 0 
1 -12 5 0 
1 2 -4 0 
4 14 -9 0 
11 4 -14 0 
15 -12 6 0 
2 5 -9 0 
15 5 -7 0 
11 11 -10 0 
8 -12 4 0 
3 -5 11 0 
12 8 -4 0 
13 2 -8 0 
3 -13 10 0 
12 5 -9 0 
3 -4 10 0 
4 9 -7 0 
5 5 -6 0 
11 14 -3 0 
12 -11 8 0 
12 -3 10 0 
2 -15 4 0 
4 -5 6 0 
6 2 -10 0 
13 9 -7 0 
11 -3 7 0 
3 -3 2 0 
2 11 -7 0 
3 3 -6 0 
10 -2 1 0 
1 10 -1 0 
6 -14 3 0 
